words_hard_train/3375.qaiger
aag 95 16 0 1 79
2
4
8
12
16
20
24
28
36
38
42
44
50
54
58
66
191
6 3 5
10 6 9
14 10 13
18 14 17
22 18 21
26 23 24
30 27 28
32 26 29
34 31 33
40 36 38
46 43 45
48 47 38
52 49 51
56 52 55
60 56 59
62 61 38
64 41 63
68 64 67
70 68 38
72 34 70
74 35 71
76 73 75
78 57 38
80 79 58
82 78 59
84 81 83
86 15 16
88 87 19
90 85 89
92 84 88
94 91 93
96 3 42
98 2 43
100 97 99
102 7 8
104 103 11
106 48 50
108 107 53
110 104 109
112 100 111
114 105 108
116 112 115
118 53 38
120 119 55
122 118 54
124 121 123
126 11 12
128 127 15
130 124 129
132 116 131
134 5 44
136 4 45
138 135 137
140 42 39
142 138 141
144 139 140
146 143 145
148 125 128
150 147 149
152 132 150
154 94 152
156 76 154
158 22 25
160 159 27
162 65 66
164 163 69
166 161 165
168 160 164
170 167 169
172 63 36
174 62 37
176 173 175
178 19 20
180 179 23
182 177 180
184 176 181
186 183 185
188 170 187
190 156 188
i0 2 y2[0]
i1 2 y2[1]
i2 2 y2[2]
i3 2 y2[3]
i4 2 y2[4]
i5 2 y2[5]
i6 2 y2[6]
i7 2 y2[7]
i8 1 x2[5]
i9 1 x2[7]
i10 1 x2[0]
i11 1 x2[1]
i12 1 x2[2]
i13 1 x2[3]
i14 1 x2[4]
i15 1 x2[6]
o0 bool[0]
c
simplified
  !=
    abs
      1 x2
    add
      << 6
        1
      unary minus
        2 y2
