words_hard_train/3375.qaiger.qdimacs
p cnf 95 238
a 33 18 19 21 22 25 27 29 0
e 1 2 3 4 5 6 7 8 9 10 11 12 13 14 15 16 17 20 23 24 26 28 30 31 32 34 35 36 37 38 39 40 41 42 43 44 45 46 47 48 49 50 51 52 53 54 55 56 57 58 59 60 61 62 63 64 65 66 67 68 69 70 71 72 73 74 75 76 77 78 79 80 81 82 83 84 85 86 87 88 89 90 91 92 93 94 95 0
1 2 3 0
-1 -3 0
-2 -3 0
-3 4 5 0
3 -5 0
-4 -5 0
-5 6 7 0
5 -7 0
-6 -7 0
-7 8 9 0
7 -9 0
-8 -9 0
-9 10 11 0
9 -11 0
-10 -11 0
11 -12 13 0
-11 -13 0
12 -13 0
13 -14 15 0
-13 -15 0
14 -15 0
-13 14 16 0
13 -16 0
-14 -16 0
15 16 17 0
-15 -17 0
-16 -17 0
-18 -19 20 0
18 -20 0
19 -20 0
21 22 23 0
-21 -23 0
-22 -23 0
23 -19 24 0
-23 -24 0
19 -24 0
24 25 26 0
-24 -26 0
-25 -26 0
-26 27 28 0
26 -28 0
-27 -28 0
-28 29 30 0
28 -30 0
-29 -30 0
30 -19 31 0
-30 -31 0
19 -31 0
20 31 32 0
-20 -32 0
-31 -32 0
-32 33 34 0
32 -34 0
-33 -34 0
-34 -19 35 0
34 -35 0
19 -35 0
-17 -35 36 0
17 -36 0
35 -36 0
17 35 37 0
-17 -37 0
-35 -37 0
36 37 38 0
-36 -38 0
-37 -38 0
28 -19 39 0
-28 -39 0
19 -39 0
39 -29 40 0
-39 -40 0
29 -40 0
-39 29 41 0
39 -41 0
-29 -41 0
40 41 42 0
-40 -42 0
-41 -42 0
7 -8 43 0
-7 -43 0
8 -43 0
43 9 44 0
-43 -44 0
-9 -44 0
42 44 45 0
-42 -45 0
-44 -45 0
-42 -44 46 0
42 -46 0
44 -46 0
45 46 47 0
-45 -47 0
-46 -47 0
1 -21 48 0
-1 -48 0
21 -48 0
-1 21 49 0
1 -49 0
-21 -49 0
48 49 50 0
-48 -50 0
-49 -50 0
3 -4 51 0
-3 -51 0
4 -51 0
51 5 52 0
-51 -52 0
-5 -52 0
-24 -25 53 0
24 -53 0
25 -53 0
53 26 54 0
-53 -54 0
-26 -54 0
-52 54 55 0
52 -55 0
-54 -55 0
-50 55 56 0
50 -56 0
-55 -56 0
52 -54 57 0
-52 -57 0
54 -57 0
-56 57 58 0
56 -58 0
-57 -58 0
26 -19 59 0
-26 -59 0
19 -59 0
59 27 60 0
-59 -60 0
-27 -60 0
-59 -27 61 0
59 -61 0
27 -61 0
60 61 62 0
-60 -62 0
-61 -62 0
5 -6 63 0
-5 -63 0
6 -63 0
63 7 64 0
-63 -64 0
-7 -64 0
-62 64 65 0
62 -65 0
-64 -65 0
-58 65 66 0
58 -66 0
-65 -66 0
2 -22 67 0
-2 -67 0
22 -67 0
-2 22 68 0
2 -68 0
-22 -68 0
67 68 69 0
-67 -69 0
-68 -69 0
-21 19 70 0
21 -70 0
-19 -70 0
-69 70 71 0
69 -71 0
-70 -71 0
69 -70 72 0
-69 -72 0
70 -72 0
71 72 73 0
-71 -73 0
-72 -73 0
62 -64 74 0
-62 -74 0
64 -74 0
73 74 75 0
-73 -75 0
-74 -75 0
-66 -75 76 0
66 -76 0
75 -76 0
-47 -76 77 0
47 -77 0
76 -77 0
-38 -77 78 0
38 -78 0
77 -78 0
-11 12 79 0
11 -79 0
-12 -79 0
79 13 80 0
-79 -80 0
-13 -80 0
32 -33 81 0
-32 -81 0
33 -81 0
81 34 82 0
-81 -82 0
-34 -82 0
80 82 83 0
-80 -83 0
-82 -83 0
-80 -82 84 0
80 -84 0
82 -84 0
83 84 85 0
-83 -85 0
-84 -85 0
31 -18 86 0
-31 -86 0
18 -86 0
-31 18 87 0
31 -87 0
-18 -87 0
86 87 88 0
-86 -88 0
-87 -88 0
9 -10 89 0
-9 -89 0
10 -89 0
89 11 90 0
-89 -90 0
-11 -90 0
88 -90 91 0
-88 -91 0
90 -91 0
-88 90 92 0
88 -92 0
-90 -92 0
91 92 93 0
-91 -93 0
-92 -93 0
-85 93 94 0
85 -94 0
-93 -94 0
-78 -94 95 0
78 -95 0
94 -95 0
-95 0
